language ESSENCE' 1.0
$ loaded file: carseqdata/csplib-instance-22
letting numcars=200
letting numclasses=25
letting numoptions=5
letting optMax=[1, 2, 1, 2, 1]
letting windowSize=[2, 3, 3, 5, 5]
letting numberPerClass=[1, 2, 40, 1, 1, 1, 1, 7, 1, 5, 29, 1, 56, 1, 5, 5, 2, 6, 13, 3, 1, 4, 2, 2, 10]
letting optionsRequired=[[1, 1, 1, 1, 0], [1, 0, 0, 0, 1], [0, 0, 0, 1, 0], [1, 1, 1, 0, 1], [0, 1, 0, 1, 1], [1, 0, 1, 1, 1], [1, 1, 0, 1, 0], [0, 1, 0, 1, 0], [0, 0, 1, 0, 1], [1, 0, 0, 1, 0], [0, 0, 1, 0, 0], [1, 1, 1, 0, 0], [0, 1, 0, 0, 0], [0, 0, 1, 1, 0], [1, 0, 1, 0, 0], [0, 1, 1, 0, 0], [1, 1, 0, 0, 1], [0, 0, 0, 0, 1], [1, 0, 0, 0, 0], [1, 0, 0, 1, 1], [0, 1, 0, 0, 1], [0, 1, 1, 1, 0], [0, 0, 0, 1, 1], [0, 1, 1, 0, 1], [1, 1, 0, 0, 0]]
